* ENCODING=ISO-8859-1
NAME          CPLEX
ROWS
 N  obj1    
 G  c1      
 G  c2      
 G  c3      
 G  c4      
 G  c5      
 G  c6      
 G  c7      
 G  c8      
 G  c9      
 G  c10     
 G  c11     
 G  c12     
 G  c13     
 G  c14     
 G  c15     
 G  c16     
 G  c17     
 G  c18     
 G  c19     
 G  c20     
 G  c21     
 G  c22     
 G  c23     
 G  c24     
 G  c25     
 G  c26     
 G  c27     
 G  c28     
 G  c29     
 G  c30     
COLUMNS
    MARK0000  'MARKER'                 'INTORG'
    x1        obj1                            1
    x1        c11                           495
    x1        c21                           593
    x2        obj1                            1
    x2        c30                           581
    x3        obj1                            1
    x3        c1                            504
    x4        obj1                            1
    x4        c26                           262
    x4        c28                           400
    x4        c29                           732
    x5        obj1                            1
    x5        c15                           197
    x6        obj1                            1
    x6        c1                            498
    x6        c9                            133
    x6        c16                           184
    x6        c20                           322
    x7        obj1                            1
    x7        c11                           873
    x7        c19                           393
    x7        c28                           666
    x8        obj1                            1
    x8        c30                           823
    x9        obj1                            1
    x9        c1                            703
    x9        c16                           926
    x9        c21                           617
    x9        c23                           382
    x9        c25                           753
    x9        c27                           935
    x9        c30                           324
    x10       obj1                            1
    x10       c3                            493
    x10       c10                           282
    x11       obj1                            1
    x11       c1                            581
    x11       c8                            820
    x11       c9                            560
    x12       obj1                            1
    x12       c1                            287
    x12       c17                           993
    x12       c21                           633
    x13       obj1                            1
    x13       c8                            475
    x13       c9                            148
    x13       c10                           796
    x13       c14                           693
    x13       c15                           603
    x13       c26                           263
    x14       obj1                            1
    x14       c10                           648
    x14       c15                           297
    x14       c28                           348
    x14       c29                           412
    x15       obj1                            1
    x15       c4                            799
    x15       c16                           991
    x15       c29                           515
    x16       obj1                            1
    x16       c19                           455
    x16       c23                           724
    x17       obj1                            1
    x17       c24                           694
    x17       c25                           509
    x18       obj1                            1
    x18       c4                            834
    x18       c23                           960
    x19       obj1                            1
    x19       c19                           436
    x20       obj1                            1
    x20       c11                           925
    x20       c15                           486
    x20       c19                           504
    x21       obj1                            1
    x21       c4                            480
    x21       c10                           183
    x22       obj1                            1
    x22       c28                           682
    x23       obj1                            1
    x23       c10                           824
    x23       c27                           102
    x24       obj1                            1
    x24       c4                            821
    x24       c8                            952
    x24       c22                           271
    x24       c23                           447
    x24       c26                           633
    x24       c29                           217
    x24       c30                           615
    x25       obj1                            1
    x25       c12                           777
    x25       c16                           605
    x25       c27                           108
    x26       obj1                            1
    x26       c2                            203
    x26       c16                           608
    x27       obj1                            1
    x27       c8                            252
    x28       obj1                            1
    x28       c5                            154
    x28       c23                           540
    x28       c26                           182
    x29       obj1                            1
    x29       c3                            732
    x29       c15                           137
    x29       c16                           235
    x29       c18                           438
    x29       c22                           935
    x29       c26                           121
    x30       obj1                            1
    x30       c2                            299
    x30       c15                           153
    x31       obj1                            1
    x31       c3                            432
    x31       c13                           827
    x31       c21                           613
    x32       obj1                            1
    x32       c4                            233
    x32       c18                           253
    x33       obj1                            1
    x33       c13                           453
    x34       obj1                            1
    x34       c5                            445
    x34       c13                           608
    x34       c24                           486
    x34       c28                           258
    x35       obj1                            1
    x36       obj1                            1
    x36       c2                            313
    x36       c9                            977
    x36       c23                           608
    x37       obj1                            1
    x37       c14                           841
    x37       c19                           730
    x37       c24                           712
    x38       obj1                            1
    x38       c30                           892
    x39       obj1                            1
    x39       c6                            746
    x39       c28                           991
    x40       obj1                            1
    x40       c3                            465
    x40       c16                           960
    x41       obj1                            1
    x41       c12                           216
    x41       c14                           691
    x41       c16                           934
    x42       obj1                            1
    x42       c13                           706
    x42       c23                           637
    x43       obj1                            1
    x43       c9                            195
    x43       c13                           875
    x44       obj1                            1
    x44       c6                            126
    x44       c24                           792
    x45       obj1                            1
    x45       c3                            747
    x45       c9                            383
    x45       c17                           242
    x45       c21                           877
    x45       c23                           173
    x46       obj1                            1
    x46       c1                            768
    x46       c15                           245
    x46       c26                           826
    x46       c27                           825
    x47       obj1                            1
    x47       c10                           658
    x47       c11                           539
    x47       c14                           691
    x47       c18                           320
    x47       c21                           741
    x48       obj1                            1
    x48       c1                            287
    x48       c2                            113
    x49       obj1                            1
    x49       c7                            230
    x49       c17                           818
    x49       c26                           129
    x49       c29                           436
    x50       obj1                            1
    x50       c8                            521
    x50       c9                            530
    x50       c20                           913
    x50       c24                           482
    x50       c26                           669
    x50       c27                           143
    x50       c28                           423
    x51       obj1                            1
    x51       c6                            976
    x51       c17                           619
    x52       obj1                            1
    x52       c9                            644
    x52       c18                           583
    x53       obj1                            1
    x53       c3                            651
    x53       c27                           311
    x53       c29                           440
    x54       obj1                            1
    x54       c13                           520
    x54       c26                           344
    x54       c28                           976
    x55       obj1                            1
    x55       c8                            749
    x56       obj1                            1
    x56       c13                           153
    x56       c14                           844
    x56       c20                           709
    x56       c25                           968
    x57       obj1                            1
    x57       c7                            805
    x57       c9                            454
    x57       c22                           341
    x58       obj1                            1
    x58       c2                            957
    x58       c7                            845
    x58       c14                           287
    x59       obj1                            1
    x59       c6                            875
    x59       c21                           199
    x59       c28                           351
    x60       obj1                            1
    x60       c5                            894
    x60       c12                           845
    MARK0001  'MARKER'                 'INTEND'
RHS
    rhs       c1                           1814
    rhs       c2                            943
    rhs       c3                           1760
    rhs       c4                           1584
    rhs       c5                            747
    rhs       c6                           1362
    rhs       c7                            940
    rhs       c8                           1885
    rhs       c9                           2012
    rhs       c10                          1696
    rhs       c11                          1416
    rhs       c12                           919
    rhs       c13                          2071
    rhs       c14                          2024
    rhs       c15                          1059
    rhs       c16                          2722
    rhs       c17                          1336
    rhs       c18                           797
    rhs       c19                          1259
    rhs       c20                           972
    rhs       c21                          2137
    rhs       c22                           774
    rhs       c23                          2236
    rhs       c24                          1583
    rhs       c25                          1115
    rhs       c26                          1715
    rhs       c27                          1212
    rhs       c28                          2548
    rhs       c29                          1376
    rhs       c30                          1618
BOUNDS
 LI bnd       x1        0
 LI bnd       x2        0
 LI bnd       x3        0
 LI bnd       x4        0
 LI bnd       x5        0
 LI bnd       x6        0
 LI bnd       x7        0
 LI bnd       x8        0
 LI bnd       x9        0
 LI bnd       x10       0
 LI bnd       x11       0
 LI bnd       x12       0
 LI bnd       x13       0
 LI bnd       x14       0
 LI bnd       x15       0
 LI bnd       x16       0
 LI bnd       x17       0
 LI bnd       x18       0
 LI bnd       x19       0
 LI bnd       x20       0
 LI bnd       x21       0
 LI bnd       x22       0
 LI bnd       x23       0
 LI bnd       x24       0
 LI bnd       x25       0
 LI bnd       x26       0
 LI bnd       x27       0
 LI bnd       x28       0
 LI bnd       x29       0
 LI bnd       x30       0
 LI bnd       x31       0
 LI bnd       x32       0
 LI bnd       x33       0
 LI bnd       x34       0
 LI bnd       x35       0
 LI bnd       x36       0
 LI bnd       x37       0
 LI bnd       x38       0
 LI bnd       x39       0
 LI bnd       x40       0
 LI bnd       x41       0
 LI bnd       x42       0
 LI bnd       x43       0
 LI bnd       x44       0
 LI bnd       x45       0
 LI bnd       x46       0
 LI bnd       x47       0
 LI bnd       x48       0
 LI bnd       x49       0
 LI bnd       x50       0
 LI bnd       x51       0
 LI bnd       x52       0
 LI bnd       x53       0
 LI bnd       x54       0
 LI bnd       x55       0
 LI bnd       x56       0
 LI bnd       x57       0
 LI bnd       x58       0
 LI bnd       x59       0
 LI bnd       x60       0
ENDATA
